100 500 10 200 10 100
98 123
40 154
55 167
41 120
68 176
78 193
21 111
63 169
92 79
52 175
32 106
79 32
28 160
79 123
21 88
85 131
67 63
36 23
41 167
78 98
49 52
43 117
67 93
43 145
67 169
59 35
54 129
46 153
22 197
28 177
30 172
59 86
43 13
63 76
69 75
90 155
11 77
30 92
82 191
43 166
48 21
54 33
30 70
44 72
68 72
82 164
27 190
75 90
42 182
87 15
84 143
71 186
26 53
71 191
54 169
63 192
96 169
64 143
96 21
74 139
22 97
14 139
12 185
52 101
33 197
61 66
32 88
18 170
76 162
62 186
100 138
92 132
84 23
74 179
16 101
59 130
19 63
58 96
59 109
36 57
56 94
14 66
35 176
96 125
18 17
47 110
89 131
66 95
47 106
68 23
93 34
36 38
97 33
41 168
10 111
90 58
17 149
13 20
71 184
97 104
